(synth-fun verifier.error ((x0 Bool) (x1 Bool) (x2 Bool) ) Bool)
(synth-fun mainventry ((x0 Int) (x1 Int) (x2 Int) ) Bool)
(synth-fun mainvverifier.error.split () Bool)
(synth-fun mainventry!_BAD () Bool)
(declare-var mainv%not._0 Bool )
(declare-var mainv%_0_0 Int )
(declare-var vnd_0 Int )
(declare-var mainv%_1_0 Int )
(declare-var mainv%_2_0 Bool )
(declare-var mainv%_3_0 Int )
(declare-var vg_0 Int )
(declare-var mainv%_4_0 Int )
(declare-var vfind_condition_0 Int )
(declare-var mainv%_6_0 Int )
(declare-var mainventry_0 Bool )
(declare-var mainv%_5_0 Bool )
(declare-var mainv_8_0 Bool )
(declare-var mainv_7_0 Bool )
(declare-var mainvverifier.error_0 Bool )
(declare-var mainvverifier.error.split_0 Bool )
(constraint (verifier.error false false false))
(constraint (verifier.error false true true))
(constraint (verifier.error true false true))
(constraint (verifier.error true true true))
(constraint (mainventry vnd_0 vg_0 vfind_condition_0))
(constraint (let ((a!1 (and (mainventry vnd_0 vg_0 vfind_condition_0)
                true
                (= mainv%_0_0 vnd_0)
                (= mainv%_2_0 (> mainv%_1_0 0))
                (= mainv%_3_0 vg_0)
                (= mainv%_4_0 vfind_condition_0)
                (= mainv%_6_0 vg_0)
                (=> mainv_8_0 (and mainv_8_0 mainventry_0))
                (=> (and mainv_8_0 mainventry_0) (not mainv%_2_0))
                (=> mainv_8_0 (= mainv%not._0 (xor mainv%_5_0 true)))
                (=> mainv_8_0 (not mainv%not._0))
                (=> mainv_7_0 (and mainv_7_0 mainventry_0))
                (=> (and mainv_7_0 mainventry_0) mainv%_2_0)
                (=> mainv_7_0 (not mainv%_5_0))
                (=> mainvverifier.error_0
                    (or (and mainvverifier.error_0 mainv_8_0)
                        (and mainvverifier.error_0 mainv_7_0)))
                (=> mainvverifier.error.split_0
                    (and mainvverifier.error.split_0 mainvverifier.error_0))
                mainvverifier.error.split_0)))
  (=> a!1 mainvverifier.error.split)))
(constraint (=> mainvverifier.error.split false))
(check-synth)
